# Solution for model GasLib-40
# Objective value = 7.8036741360119152e+01
loadshed[innode_1] 0
loadshed[innode_2] 0
loadshed[innode_3] 0
loadshed[innode_4] 0
loadshed[innode_5] 0
loadshed[innode_6] 0
loadshed[innode_7] 0
loadshed[innode_8] 0
loadshed[source_1] 2.2787440490443345e-02
loadshed[source_2] 1.7170482075783089e-01
loadshed[source_3] 2.9912912051566842e-01
loadshed[sink_1] 1
loadshed[sink_2] 0
loadshed[sink_3] 0
loadshed[sink_4] 0
loadshed[sink_5] 0
loadshed[sink_6] 0
loadshed[sink_7] 0
loadshed[sink_8] 0
loadshed[sink_9] 0
loadshed[sink_10] 0
loadshed[sink_11] 0
loadshed[sink_12] 1
loadshed[sink_13] 0
loadshed[sink_14] 0
loadshed[sink_15] 0
loadshed[sink_16] 0
loadshed[sink_17] 0
loadshed[sink_18] 3.5555066491145892e-01
loadshed[sink_19] 0
loadshed[sink_20] 0
loadshed[sink_21] 1
loadshed[sink_22] 4.5737604837830032e-01
loadshed[sink_23] 0
loadshed[sink_24] 9.5874664376211238e-01
loadshed[sink_25] 0
loadshed[sink_26] 0
loadshed[sink_27] 0
loadshed[sink_28] 0
loadshed[sink_29] 0
flow[source_1,sink_3] 154.487804980799
flow[innode_1,sink_16] 1.6354166666666970e+01
flow[innode_6,sink_13] 3.6782946426334746e+00
flow[sink_13,sink_14] -1.2675872024033193e+01
flow[sink_14,sink_10] -2.9030038690699861e+01
flow[sink_25,sink_26] 0
flow[sink_26,sink_9] 1.6354166666669244e+01
flow[sink_9,sink_18] 0
flow[sink_26,sink_4] -3.2708333333335915e+01
flow[sink_4,sink_20] -7.9770351817676385e+01
flow[sink_18,sink_6] -1.0539431834260517e+01
flow[sink_25,innode_8] -1.2177947164746266e+02
flow[sink_6,sink_7] -3.5767761043073733e+01
flow[sink_6,sink_22] 8.8741625421465464e+00
flow[sink_7,sink_24] 6.7466426347378716e-01
flow[sink_22,sink_1] 0
flow[sink_24,sink_21] 0
flow[sink_21,sink_12] 0
flow[sink_7,sink_5] -52.7965919732142
flow[sink_5,sink_17] -6.9150758639880863e+01
flow[sink_17,sink_4] -3.0707851817673713e+01
flow[sink_17,sink_8] -5.4797073488873934e+01
flow[sink_3,sink_23] 16.3541666666697
flow[sink_8,sink_20] -71.1512401555406
flow[sink_25,sink_20] 1.6727575863988346e+02
flow[sink_25,sink_15] -6.5528748301720867e+01
flow[sink_15,sink_29] -4.7601525367352195e+01
flow[sink_29,sink_28] 1.6354166666667879e+01
flow[sink_29,sink_2] 50.635556267702
flow[sink_2,sink_15] 3.4281389601035336e+01
flow[sink_29,innode_7] -1.3094541496838875e+02
flow[innode_4,sink_19] 4.2602631225909555e+01
flow[sink_19,innode_3] 3.8108829252635310e+01
flow[innode_4,innode_5] 6.8198240798123848e+01
flow[sink_27,innode_5] -6.8198240798123848e+01
flow[sink_27,sink_19] 5.1844074131457177e+01
flow[sink_10,sink_11] 3.2708333333333641e+01
flow[sink_10,innode_2] -3.9983709438064857e+01
flow[sink_10,innode_3] -3.8108829252635310e+01
flow[innode_6,sink_25] -3.6782946426334746e+00
flow[sink_11,innode_1] 1.6354166666666970e+01
flow[sink_19,innode_2] 3.9983709438064857e+01
flow[source_3,innode_4] 1.1080087202403340e+02
flow[source_2,innode_7] 1.3094541496838875e+02
flow[sink_3,innode_8] 1.2177947164746266e+02
pressure[innode_1] 77.0223033673816
pressure[innode_2] 7.9287308856915345e+01
pressure[innode_3] 7.9202921169892164e+01
pressure[innode_4] 81.01325
pressure[innode_5] 8.0966339653874670e+01
pressure[innode_6] 75.7985178782599
pressure[innode_7] 81.01325
pressure[innode_8] 80.4968562844298
pressure[source_1] 81.01325
pressure[source_2] 81.01325
pressure[source_3] 81.01325
pressure[sink_1] 1.0132500000000002e+00
pressure[sink_2] 7.6228317341717187e+01
pressure[sink_3] 80.4968562844298
pressure[sink_4] 3.0068164566462141e+01
pressure[sink_5] 2.3743380043370788e+01
pressure[sink_6] 1.2946842099871838e+00
pressure[sink_7] 1.7856903116700846e+00
pressure[sink_8] 3.0962247668033527e+01
pressure[sink_9] 2.4930703329573671e+01
pressure[sink_10] 7.7174004674985142e+01
pressure[sink_11] 77.0223033673816
pressure[sink_12] 1.01325
pressure[sink_13] 75.7782400545952
pressure[sink_14] 7.5800924607327730e+01
pressure[sink_15] 7.6116396160166374e+01
pressure[sink_16] 7.6000653532563916e+01
pressure[sink_17] 2.8894611726002061e+01
pressure[sink_18] 1.01325
pressure[sink_19] 7.9287308856915345e+01
pressure[sink_20] 3.5920488487699451e+01
pressure[sink_21] 1.01325
pressure[sink_22] 1.0132500000000002e+00
pressure[sink_23] 8.0332138272770010e+01
pressure[sink_24] 1.01325
pressure[sink_25] 75.7985178782599
pressure[sink_26] 2.5909542413516093e+01
pressure[sink_27] 80.4004202720494
pressure[sink_28] 77.2156908540522
pressure[sink_29] 7.7510973127669374e+01
interdiction[source_1,sink_3] 0
interdiction[innode_1,sink_16] 0
interdiction[innode_6,sink_13] 0
interdiction[sink_13,sink_14] 0
interdiction[sink_14,sink_10] 0
interdiction[sink_25,sink_26] 1
interdiction[sink_26,sink_9] 0
interdiction[sink_9,sink_18] 1
interdiction[sink_26,sink_4] 0
interdiction[sink_4,sink_20] 0
interdiction[sink_18,sink_6] 0
interdiction[sink_25,innode_8] 0
interdiction[sink_6,sink_7] 0
interdiction[sink_6,sink_22] 0
interdiction[sink_7,sink_24] 0
interdiction[sink_22,sink_1] 0
interdiction[sink_24,sink_21] 0
interdiction[sink_21,sink_12] 0
interdiction[sink_7,sink_5] 0
interdiction[sink_5,sink_17] 0
interdiction[sink_17,sink_4] 0
interdiction[sink_17,sink_8] 0
interdiction[sink_3,sink_23] 0
interdiction[sink_8,sink_20] 0
interdiction[sink_25,sink_20] 0
interdiction[sink_25,sink_15] 0
interdiction[sink_15,sink_29] 0
interdiction[sink_29,sink_28] 0
interdiction[sink_29,sink_2] 0
interdiction[sink_2,sink_15] 0
interdiction[sink_29,innode_7] 0
interdiction[innode_4,sink_19] 0
interdiction[sink_19,innode_3] 0
interdiction[innode_4,innode_5] 0
interdiction[sink_27,innode_5] 0
interdiction[sink_27,sink_19] 0
interdiction[sink_10,sink_11] 0
interdiction[sink_10,innode_2] 0
interdiction[sink_10,innode_3] 0
interdiction[innode_6,sink_25] 0
interdiction[sink_11,innode_1] 0
interdiction[sink_19,innode_2] 0
interdiction[source_3,innode_4] 0
interdiction[source_2,innode_7] 0
interdiction[sink_3,innode_8] 0
WCcheckFlow[source_1,sink_3] 39
WCcheckFlow[innode_1,sink_16] 1
WCcheckFlow[innode_6,sink_13] 13
WCcheckFlow[sink_13,sink_14] 12
WCcheckFlow[sink_14,sink_10] 11
WCcheckFlow[sink_25,sink_26] 0
WCcheckFlow[sink_26,sink_9] 1
WCcheckFlow[sink_9,sink_18] 0
WCcheckFlow[sink_26,sink_4] -2
WCcheckFlow[sink_4,sink_20] -14
WCcheckFlow[sink_18,sink_6] -1
WCcheckFlow[sink_25,innode_8] -36
WCcheckFlow[sink_6,sink_7] -4
WCcheckFlow[sink_6,sink_22] 2
WCcheckFlow[sink_7,sink_24] 3
WCcheckFlow[sink_22,sink_1] 1
WCcheckFlow[sink_24,sink_21] 2
WCcheckFlow[sink_21,sink_12] 1
WCcheckFlow[sink_7,sink_5] -8
WCcheckFlow[sink_5,sink_17] -9
WCcheckFlow[sink_17,sink_4] -11
WCcheckFlow[sink_17,sink_8] 1
WCcheckFlow[sink_3,sink_23] 1
WCcheckFlow[sink_8,sink_20] 0
WCcheckFlow[sink_25,sink_20] 15
WCcheckFlow[sink_25,sink_15] 6
WCcheckFlow[sink_15,sink_29] 5
WCcheckFlow[sink_29,sink_28] 1
WCcheckFlow[sink_29,sink_2] 1
WCcheckFlow[sink_2,sink_15] 0
WCcheckFlow[sink_29,innode_7] 2
WCcheckFlow[innode_4,sink_19] -4
WCcheckFlow[sink_19,innode_3] -5
WCcheckFlow[innode_4,innode_5] 2
WCcheckFlow[sink_27,innode_5] -1
WCcheckFlow[sink_27,sink_19] 0
WCcheckFlow[sink_10,sink_11] 3
WCcheckFlow[sink_10,innode_2] 1
WCcheckFlow[sink_10,innode_3] 6
WCcheckFlow[innode_6,sink_25] -14
WCcheckFlow[sink_11,innode_1] 2
WCcheckFlow[sink_19,innode_2] 0
WCcheckFlow[source_3,innode_4] -1
WCcheckFlow[source_2,innode_7] -1
WCcheckFlow[sink_3,innode_8] 37
